c ---- [ banner ] ------------------------------------------------------------
c
c Kissat SAT Solver
c 
c Copyright (c) 2021-2024 Armin Biere University of Freiburg
c Copyright (c) 2019-2021 Armin Biere Johannes Kepler University Linz
c 
c Version 4.0.1 43f02cf3e992cb44653b35e5cb26f93281552ae0
c gcc (Ubuntu 13.2.0-23ubuntu4) 13.2.0 -W -Wall -O3 -DNDEBUG
c Thu Sep 12 12:27:46 CEST 2024 Linux abryzen9 6.8.0-41-generic x86_64
c
c ---- [ parsing ] -----------------------------------------------------------
c
c opened and reading DIMACS file:
c
c   /data/artifact/AMulet2.0_artifact/exp4/cnf_resyn3_64/64_64_U1_DT_KS_Multgen_resyn3.cnf
c
c parsed 'p cnf 27152 119472' header
c closing input after reading 2359226 bytes (2 MB)
c finished parsing after 0.02 seconds
c
c ---- [ options ] -----------------------------------------------------------
c
c --stable=0                       (different from default '1')
c
c ---- [ solving ] -----------------------------------------------------------
c
c  seconds switched rate     size/glue tier1  binary           remaining
c         MB reductions conflicts size  tier2     irredundant
c          level restarts redundant glue  trail           variables
c
c *  0.02 10 0 0 0  0 0   0   0 0.0 0 0 0 0 0% 12817 106653 27149 100%
c (  0.03 11 0 0 0  0 0   0   0 0.0 0 0 0 0 0% 12817 106653 27149 100%
c .  0.03 12 0 0 0  0 0   0   0 0.0 0 0 0 0 0% 12813 106653 27149 100%
c f  0.17 15 0 0 0  0 0   0   0 0.0 0 0 0 0 0% 17602 99155 29854 110%
c e  0.31 24 0 0 0  0 0   0   0 0.0 0 0 0 0 0% 11996 107210 21013 77%
c )  0.31 24 0 0 0  0 0   0   0 0.0 0 0 0 0 0% 11996 107210 21013 77%
c {  0.33 24 0 0 0  0 0   0   0 0.0 0 0 2 6 0% 11996 107210 21013 77%
c -  0.55 26 107 0 1 292 35 1000 678 2.6 13 5 3 9 17% 12103 107210 21013 77%
c -  1.01 26 198 0 2 521 43 2001 1426 3.7 21 6 3 10 25% 12114 107210 21013 77%
c d  1.18 26 222 0 2 605 44 2504 1878 3.9 24 6 3 10 25% 12116 107210 21006 77%
c u  1.21 26 222 0 2 605 44 2504 1577 3.9 24 6 3 10 25% 12127 107210 21006 77%
c v  1.24 26 222 0 2 605 44 2504 1321 3.9 24 6 3 10 25% 12127 107210 21006 77%
c w  1.27 26 222 0 2 605 44 2504 1320 3.9 24 6 3 10 25% 12127 107210 21006 77%
c x  1.30 26 222 0 2 605 44 2504 1320 3.9 24 6 3 10 25% 12127 107192 21006 77%
c d  1.31 26 222 0 2 605 44 2504 1319 3.9 24 6 3 10 25% 12125 107192 21005 77%
c t  1.33 26 222 0 2 605 44 2504 1319 3.9 24 6 3 10 25% 12123 107192 21005 77%
c f  1.36 26 222 0 2 605 44 2504 1319 3.9 24 6 3 10 25% 12731 105962 21604 80%
c c  1.44 23 222 0 2 605 44 2504 1317 3.9 24 6 3 10 25% 12733 105954 21603 80%
c d  1.45 23 222 0 2 605 44 2504 1317 3.9 24 6 3 10 25% 12731 105954 21603 80%
c u  1.47 23 222 0 2 605 44 2504 1269 3.9 24 6 3 10 25% 12732 105954 21603 80%
c
c  seconds   switched   rate       size/glue tier1     binary           remaining
c         MB  reductions conflicts       size  tier2       irredundant
c           level restarts    redundant    glue    trail           variables
c
c v  1.50 23 222 0 2 605 44 2504 1233 3.9 24 6 3 10 25% 12732 105954 21603 80%
c w  1.56 26 222 0 2 605 44 2504 1227 3.9 24 6 3 10 25% 12732 105954 21603 80%
c =  1.70 26 222 0 2 605 44 2504 1227 3.9 24 6 3 10 25% 12734 105954 21602 80%
c d  1.71 26 222 0 2 605 44 2504 1227 3.9 24 6 3 10 25% 12732 105954 21602 80%
c f  1.77 26 222 0 2 605 44 2504 1227 3.9 24 6 3 10 25% 12776 105886 21625 80%
c -  1.96 26 236 0 3 695 42 3417 1821 3.6 21 6 3 10 27% 12790 105886 21625 80%
c -  2.40 26 263 0 4 859 41 5149 2847 4.0 23 6 3 9 27% 12887 105886 21625 80%
c -  3.08 27 278 0 5 1106 42 7149 3882 4.4 28 7 2 9 27% 12935 105886 21625 80%
c d  3.17 27 281 0 5 1117 40 7710 4255 4.3 28 6 2 9 27% 12862 105886 21571 79%
c u  3.21 27 281 0 5 1117 40 7710 3774 4.3 28 6 2 9 27% 12891 105886 21571 79%
c v  3.26 27 281 0 5 1117 40 7710 3192 4.3 28 6 2 9 27% 12892 105886 21571 79%
c w  3.30 27 281 0 5 1117 40 7710 3186 4.3 28 6 2 9 27% 12892 105886 21571 79%
c x  3.33 27 281 0 5 1117 40 7710 3186 4.3 28 6 2 9 27% 12892 105880 21571 79%
c d  3.34 27 281 0 5 1117 40 7710 3184 4.3 28 6 2 9 27% 12884 105880 21567 79%
c t  3.36 27 281 0 5 1117 40 7710 3184 4.3 28 6 2 9 27% 12873 105880 21567 79%
c f  3.42 27 281 0 5 1117 40 7710 3184 4.3 28 6 2 9 27% 15173 102418 22717 84%
c u  3.47 27 281 0 5 1117 40 7710 3096 4.3 28 6 2 9 27% 15174 102418 22717 84%
c v  3.50 27 281 0 5 1117 40 7710 2981 4.3 28 6 2 9 27% 15175 102418 22717 84%
c w  3.54 27 281 0 5 1117 40 7710 2978 4.3 28 6 2 9 27% 15175 102418 22717 84%
c t  3.56 27 281 0 5 1117 40 7710 2978 4.3 28 6 2 9 27% 15124 102418 22717 84%
c
c  seconds   switched    rate       size/glue tier1    binary          remaining
c         MB  reductions  conflicts       size  tier2      irredundant
c           level  restarts    redundant    glue   trail          variables
c
c f  3.62 27 281 0 5 1117 40 7710 2978 4.3 28 6 2 9 27% 16912 99730 23610 87%
c -  4.26 27 294 0 6 1346 40 9385 3774 4.6 31 7 2 9 27% 16982 99730 23610 87%
c o  4.73 27 299 0 6 1490 41 10257 4490 4.8 34 7 2 9 28% 17019 99730 23610 87%
c -  5.15 27 289 0 7 1606 39 11834 5025 4.7 33 7 2 9 27% 17073 99730 23610 87%
c s  5.34 27 291 0 7 1641 38 12513 5642 4.7 32 7 2 9 27% 17093 99356 23610 87%
c e  5.48 29 291 0 7 1641 38 12513 5642 4.7 32 7 2 9 27% 15998 100108 22739 84%
c 2  5.48 29 291 0 7 1641 38 12513 5642 4.7 32 7 2 9 27% 15996 100108 22739 84%
c s  5.48 29 291 0 7 1641 38 12513 5642 4.7 32 7 2 9 27% 16010 99702 22739 84%
c e  5.50 29 291 0 7 1641 38 12513 5642 4.7 32 7 2 9 27% 15929 99755 22703 84%
c ^  5.50 29 291 0 7 1641 38 12513 5642 4.7 32 7 2 9 27% 15929 99755 22703 84%
c -  6.01 29 322 0 8 1792 38 14479 6047 4.7 33 7 2 9 26% 15988 99755 22703 84%
c c  6.42 29 320 0 8 1980 38 15795 7127 5.0 36 7 2 9 27% 16067 99628 22667 83%
c d  6.43 29 320 0 8 1980 38 15795 7088 5.0 36 7 2 9 27% 15395 99628 22312 82%
c u  6.46 29 320 0 8 1980 38 15795 6160 5.0 36 7 2 9 27% 15419 99628 22312 82%
c v  6.49 29 320 0 8 1980 38 15795 5172 5.0 36 7 2 9 27% 15419 99628 22312 82%
c w  6.61 29 320 0 8 1980 38 15795 5162 5.0 36 7 2 9 27% 15419 99628 22312 82%
c =  6.81 29 320 0 8 1980 38 15795 5162 5.0 36 7 2 9 27% 15731 99628 22156 82%
c d  6.82 29 320 0 8 1980 38 15795 5156 5.0 36 7 2 9 27% 15279 99628 22151 82%
c t  6.83 29 320 0 8 1980 38 15795 5156 5.0 36 7 2 9 27% 15194 99628 22151 82%
c f  6.87 29 320 0 8 1980 38 15795 5156 5.0 36 7 2 9 27% 15274 99243 22291 82%
c
c  seconds   switched    rate        size/glue tier1    binary          remaining
c         MB  reductions   conflicts       size  tier2      irredundant
c           level  restarts     redundant    glue   trail          variables
c
c u  6.90 29 320 0 8 1980 38 15795 4899 5.0 36 7 2 9 27% 15278 99243 22291 82%
c v  6.92 29 320 0 8 1980 38 15795 4751 5.0 36 7 2 9 27% 15278 99243 22291 82%
c w  7.00 29 320 0 8 1980 38 15795 4730 5.0 36 7 2 9 27% 15278 99243 22291 82%
c x  7.03 29 320 0 8 1980 38 15795 4730 5.0 36 7 2 9 27% 15278 99201 22291 82%
c t  7.05 29 320 0 8 1980 38 15795 4730 5.0 36 7 2 9 27% 15272 99201 22291 82%
c -  7.29 29 317 0 9 2093 36 17309 5296 4.9 35 7 2 8 27% 15309 99201 22291 82%
c -  7.67 29 295 0 10 2272 33 20309 6833 4.6 34 7 2 8 30% 15345 99201 22291 82%
c o  7.70 29 286 0 10 2273 32 21141 7581 4.5 33 7 2 8 31% 15348 99201 22291 82%
c -  8.14 29 309 0 11 2478 32 23471 8131 4.6 34 7 2 8 30% 15441 99201 22291 82%
c s  8.50 29 308 0 11 2632 32 25023 9501 4.6 34 7 2 8 31% 15476 98984 22291 82%
c e  8.60 29 308 0 11 2632 32 25023 9501 4.6 34 7 2 8 31% 11679 104691 20026 74%
c 2  8.60 29 308 0 11 2632 32 25023 9501 4.6 34 7 2 8 31% 11677 104691 20026 74%
c s  8.61 29 308 0 11 2632 32 25023 9501 4.6 34 7 2 8 31% 11689 104460 20026 74%
c e  8.62 29 308 0 11 2632 32 25023 9501 4.6 34 7 2 8 31% 11662 104485 20014 74%
c ^  8.62 29 308 0 11 2632 32 25023 9501 4.6 34 7 2 8 31% 11662 104485 20014 74%
c -  8.88 29 317 0 12 2756 33 26787 8027 4.6 34 7 2 8 30% 11718 104485 20014 74%
c c  8.94 29 318 0 12 2759 33 26927 8134 4.6 34 7 2 8 30% 11774 104155 19959 74%
c d  8.94 29 318 0 12 2759 33 26927 8078 4.6 34 7 2 8 30% 11264 104155 19719 73%
c u  8.97 29 318 0 12 2759 33 26927 7106 4.6 34 7 2 8 30% 11282 104155 19719 73%
c v  9.01 29 318 0 12 2759 33 26927 6244 4.6 34 7 2 8 30% 11282 104155 19719 73%
c
c  seconds   switched     rate        size/glue tier1    binary           remaining
c         MB   reductions   conflicts       size  tier2      irredundant
c           level   restarts     redundant    glue   trail           variables
c
c w  9.02 29 318 0 12 2759 33 26927 6243 4.6 34 7 2 8 30% 11282 104155 19719 73%
c =  9.19 29 318 0 12 2759 33 26927 6243 4.6 34 7 2 8 30% 12012 104151 19354 71%
c d  9.20 29 318 0 12 2759 33 26927 6145 4.6 34 7 2 8 30% 11183 104151 19354 71%
c t  9.21 29 318 0 12 2759 33 26927 6145 4.6 34 7 2 8 30% 11174 104151 19354 71%
c f  9.27 29 318 0 12 2759 33 26927 6145 4.6 34 7 2 8 30% 11183 104103 19366 71%
c c  9.31 29 318 0 12 2759 33 26927 6145 4.6 34 7 2 8 30% 11186 104087 19364 71%
c d  9.32 29 318 0 12 2759 33 26927 6145 4.6 34 7 2 8 30% 11182 104087 19364 71%
c u  9.34 29 318 0 12 2759 33 26927 5902 4.6 34 7 2 8 30% 11185 104087 19364 71%
c v  9.37 29 318 0 12 2759 33 26927 5706 4.6 34 7 2 8 30% 11185 104087 19364 71%
c w  9.37 29 318 0 12 2759 33 26927 5705 4.6 34 7 2 8 30% 11185 104087 19364 71%
c =  9.57 29 318 0 12 2759 33 26927 5705 4.6 34 7 2 8 30% 12729 104087 18592 68%
c d  9.58 29 318 0 12 2759 33 26927 5660 4.6 34 7 2 8 30% 11135 104087 18592 68%
c - 10.17 29 302 0 13 3038 32 30251 7307 4.6 34 7 2 8 29% 11253 104087 18592 68%
c - 10.76 29 296 0 14 3306 31 33856 9243 4.6 35 8 2 8 29% 11334 104087 18592 68%
c - 11.56 29 293 0 15 3685 31 37597 10931 4.6 36 8 2 7 29% 11428 104087 18592 68%
c o 12.15 29 295 0 15 3936 31 41141 13979 4.6 36 8 2 7 29% 11514 104086 18592 68%
c d 12.21 29 295 0 15 3965 31 41262 13934 4.6 36 8 2 7 29% 11258 104086 18464 68%
c u 12.26 29 295 0 15 3965 31 41262 11719 4.6 36 8 2 7 29% 11297 104086 18464 68%
c v 12.32 29 295 0 15 3965 31 41262 10145 4.6 36 8 2 7 29% 11303 104086 18464 68%
c w 12.49 29 295 0 15 3965 31 41262 10137 4.6 36 8 2 7 29% 11303 104086 18464 68%
c
c  seconds   switched     rate         size/glue tier1    binary           remaining
c         MB   reductions   conflicts        size  tier2      irredundant
c           level   restarts      redundant    glue   trail           variables
c
c = 12.78 29 295 0 15 3965 31 41262 10137 4.6 36 8 2 7 29% 15945 104086 16143 59%
c d 12.79 29 295 0 15 3965 31 41262 9737 4.6 36 8 2 7 29% 11124 104084 16136 59%
c t 12.80 29 295 0 15 3965 31 41262 9737 4.6 36 8 2 7 29% 11055 104084 16136 59%
c f 12.85 29 295 0 15 3965 31 41262 9737 4.6 36 8 2 7 29% 11057 104026 16151 59%
c c 12.90 29 295 0 15 3965 31 41262 9696 4.6 36 8 2 7 29% 11089 103866 16132 59%
c d 12.90 29 295 0 15 3965 31 41262 9696 4.6 36 8 2 7 29% 11051 103866 16132 59%
c u 12.94 29 295 0 15 3965 31 41262 8860 4.6 36 8 2 7 29% 11055 103866 16132 59%
c v 12.97 29 295 0 15 3965 31 41262 8614 4.6 36 8 2 7 29% 11056 103866 16132 59%
c w 13.08 29 295 0 15 3965 31 41262 8597 4.6 36 8 2 7 29% 11056 103866 16132 59%
c x 13.13 29 295 0 15 3965 31 41262 8597 4.6 36 8 2 7 29% 11056 93469 16132 59%
c = 13.43 29 295 0 15 3965 31 41262 8597 4.6 36 8 2 7 29% 15020 93463 14150 52%
c d 13.44 29 295 0 15 3965 31 41262 8269 4.6 36 8 2 7 29% 10955 93463 14150 52%
c t 13.45 29 295 0 15 3965 31 41262 8269 4.6 36 8 2 7 29% 10764 93463 14150 52%
c f 13.48 29 295 0 15 3965 31 41262 8269 4.6 36 8 2 7 29% 10782 93366 14170 52%
c - 13.56 29 294 0 16 4006 31 41469 7433 4.6 36 8 2 7 29% 10782 93366 14170 52%
c - 14.25 29 284 0 17 4438 30 45470 9803 4.5 35 8 2 7 30% 10795 93363 14170 52%
c - 14.95 29 275 0 18 4847 30 49593 12022 4.4 35 8 2 7 30% 10812 93358 14170 52%
c s 15.09 29 265 0 18 4910 29 52144 13768 4.3 34 8 2 7 29% 10820 69243 14170 52%
c e 15.15 29 265 0 18 4910 29 52144 13768 4.3 34 8 2 7 29% 10349 70299 13585 50%
c 2 15.15 29 265 0 18 4910 29 52144 13768 4.3 34 8 2 7 29% 10326 70299 13585 50%
c
c  seconds   switched     rate         size/glue tier1    binary          remaining
c         MB   reductions   conflicts        size  tier2      irredundant
c           level   restarts      redundant    glue   trail          variables
c
c s 15.15 29 265 0 18 4910 29 52144 13768 4.3 34 8 2 7 29% 10329 69864 13585 50%
c e 15.16 29 265 0 18 4910 29 52144 13768 4.3 34 8 2 7 29% 10275 69949 13561 50%
c ^ 15.16 29 265 0 18 4910 29 52144 13768 4.3 34 8 2 7 29% 10275 69949 13561 50%
c - 15.41 29 262 0 19 5091 28 53835 12364 4.2 34 8 2 7 29% 10286 69949 13561 50%
c - 16.09 29 252 0 20 5531 28 58194 14070 4.1 34 8 2 7 29% 10321 69949 13561 50%
c c 16.22 29 251 0 20 5601 28 58893 14740 4.1 34 8 2 7 29% 10373 69772 13525 50%
c d 16.22 29 251 0 20 5601 28 58893 14653 4.1 34 8 2 7 29% 10301 69772 13525 50%
c u 16.27 29 251 0 20 5601 28 58893 12099 4.1 34 8 2 7 29% 10270 69772 13525 50%
c v 16.32 29 251 0 20 5601 28 58893 10509 4.1 34 8 2 7 29% 10274 69772 13525 50%
c w 16.36 29 251 0 20 5601 28 58893 10475 4.1 34 8 2 7 29% 10274 69772 13525 50%
c = 16.69 29 251 0 20 5601 28 58893 10475 4.1 34 8 2 7 29% 10282 69772 13521 50%
c d 16.70 29 251 0 20 5601 28 58893 10466 4.1 34 8 2 7 29% 10265 69772 13517 50%
c t 16.72 29 251 0 20 5601 28 58893 10466 4.1 34 8 2 7 29% 10236 69772 13517 50%
c f 16.75 29 251 0 20 5601 28 58893 10466 4.1 34 8 2 7 29% 10197 69648 13545 50%
c c 16.80 29 251 0 20 5601 28 58893 10456 4.1 34 8 2 7 29% 10206 69616 13541 50%
c d 16.81 29 251 0 20 5601 28 58893 10456 4.1 34 8 2 7 29% 10198 69616 13541 50%
c u 16.87 29 251 0 20 5601 28 58893 9823 4.1 34 8 2 7 29% 10202 69616 13541 50%
c v 16.92 29 251 0 20 5601 28 58893 9499 4.1 34 8 2 7 29% 10203 69616 13541 50%
c w 17.00 29 251 0 20 5601 28 58893 9478 4.1 34 8 2 7 29% 10203 69616 13541 50%
c x 17.13 29 251 0 20 5601 28 58893 9472 4.1 34 8 2 7 29% 10208 67094 13541 50%
c
c  seconds   switched     rate        size/glue tier1    binary          remaining
c         MB   reductions   conflicts       size  tier2      irredundant
c           level   restarts     redundant    glue   trail          variables
c
c = 17.39 29 251 0 20 5601 28 58893 9472 4.1 34 8 2 7 29% 10374 67094 13458 50%
c d 17.39 29 251 0 20 5601 28 58893 9196 4.1 34 8 2 7 29% 10198 67094 13458 50%
c t 17.40 29 251 0 20 5601 28 58893 9196 4.1 34 8 2 7 29% 10170 67094 13458 50%
c f 17.41 29 251 0 20 5601 28 58893 9196 4.1 34 8 2 7 29% 10164 67076 13462 50%
c - 17.99 29 249 0 21 5997 28 62668 11156 4.0 34 8 2 7 30% 10189 67075 13462 50%
c - 18.56 29 243 0 22 6402 27 67251 13382 3.9 33 8 2 7 30% 10237 67075 13462 50%
c o 19.05 29 237 0 22 6775 27 71154 17066 3.9 33 8 2 7 30% 10269 67073 13462 50%
c - 19.22 29 235 0 23 6912 27 71941 15317 3.9 33 8 2 7 30% 10269 67073 13462 50%
c i 19.25 29 233 0 23 6924 27 72815 15931 3.9 32 8 2 7 30% 10317 67073 13461 50%
c - 19.88 29 228 0 24 7397 26 76736 16918 3.9 33 9 2 7 30% 10342 67073 13461 50%
c i 20.17 29 225 0 24 7623 26 78485 18546 3.8 33 9 2 7 30% 10356 67072 13460 50%
c d 20.34 29 224 0 24 7718 26 79991 19562 3.8 33 9 2 7 30% 10258 67052 13401 49%
c d 20.34 29 224 0 24 7718 26 79991 19537 3.8 33 9 2 7 30% 10252 67052 13398 49%
c u 20.41 29 224 0 24 7718 26 79991 16592 3.8 33 9 2 7 30% 10279 67052 13398 49%
c v 20.47 29 224 0 24 7718 26 79991 14968 3.8 33 9 2 7 30% 10285 67052 13397 49%
c w 20.51 29 224 0 24 7718 26 79991 14959 3.8 33 9 2 7 30% 10285 67052 13397 49%
c x 20.58 29 224 0 24 7718 26 79991 14956 3.8 33 9 2 7 30% 10292 66153 13397 49%
c = 20.68 29 224 0 24 7718 26 79991 14956 3.8 33 9 2 7 30% 10297 66153 13394 49%
c d 20.68 29 224 0 24 7718 26 79991 14940 3.8 33 9 2 7 30% 10284 66153 13391 49%
c t 20.69 29 224 0 24 7718 26 79991 14940 3.8 33 9 2 7 30% 10244 66153 13391 49%
c
c  seconds   switched     rate         size/glue tier1    binary          remaining
c         MB   reductions   conflicts        size  tier2      irredundant
c           level   restarts      redundant    glue   trail          variables
c
c c 20.73 29 224 0 24 7718 26 79991 14929 3.8 33 9 2 7 30% 10240 66113 13387 49%
c d 20.74 29 224 0 24 7718 26 79991 14929 3.8 33 9 2 7 30% 10232 66113 13387 49%
c u 20.79 29 224 0 24 7718 26 79991 14159 3.8 33 9 2 7 30% 10253 66113 13387 49%
c v 20.84 29 224 0 24 7718 26 79991 13456 3.8 33 9 2 7 30% 10253 66113 13387 49%
c w 20.93 29 224 0 24 7718 26 79991 13448 3.8 33 9 2 7 30% 10253 66113 13387 49%
c x 21.00 29 224 0 24 7718 26 79991 13445 3.8 33 9 2 7 30% 10254 65969 13387 49%
c = 21.40 29 224 0 24 7718 26 79991 13445 3.8 33 9 2 7 30% 10570 65901 13220 49%
c d 21.41 29 224 0 24 7718 26 79991 13366 3.8 33 9 2 7 30% 10225 65898 13220 49%
c t 21.42 29 224 0 24 7718 26 79991 13366 3.8 33 9 2 7 30% 10043 65898 13220 49%
c f 21.43 29 224 0 24 7718 26 79991 13366 3.8 33 9 2 7 30% 10035 65879 13225 49%
c i 21.43 29 224 0 24 7718 26 79991 13366 3.8 33 9 2 7 30% 10035 65879 13225 49%
c i 21.53 29 223 0 24 7790 26 80532 13886 3.8 33 9 2 7 30% 10037 65877 13224 49%
c i 21.60 29 222 0 24 7848 26 81058 14387 3.8 32 9 2 7 30% 10042 65877 13223 49%
c - 21.66 29 222 0 25 7877 26 81634 12840 3.8 32 9 2 7 30% 10026 65877 13223 49%
c i 21.75 29 220 0 25 7923 26 82663 13791 3.8 32 9 2 7 30% 10039 65877 13222 49%
c i 22.44 29 216 0 25 8437 26 86550 17437 3.7 32 9 2 7 30% 10061 65874 13221 49%
c - 22.45 29 216 0 26 8437 26 86637 13976 3.7 32 9 1 7 30% 10051 65874 13221 49%
c i 22.47 29 215 0 26 8450 26 87091 14372 3.7 32 9 1 7 30% 10056 65870 13220 49%
c i 22.47 29 215 0 26 8450 25 87449 14666 3.7 32 9 1 7 30% 10067 65865 13219 49%
c i 22.47 29 215 0 26 8450 25 87455 14666 3.7 32 9 1 7 30% 10068 65865 13218 49%
c
c  seconds   switched     rate         size/glue tier1    binary          remaining
c         MB   reductions   conflicts        size  tier2      irredundant
c           level   restarts      redundant    glue   trail          variables
c
c - 23.00 29 211 0 27 8799 25 91736 16805 3.6 32 9 2 7 31% 10086 65865 13218 49%
c i 23.01 29 211 0 27 8808 25 91770 16834 3.6 32 9 2 7 31% 10089 65865 13215 49%
c i 23.05 29 210 0 27 8836 25 92103 17146 3.6 32 9 2 7 31% 10092 65865 13214 49%
c i 23.44 29 208 0 27 9035 25 94092 19035 3.6 32 9 2 7 31% 10102 65865 13212 49%
c i 23.62 29 206 0 27 9110 24 95352 20204 3.6 31 9 2 7 30% 10112 65865 13211 49%
c s 23.81 29 205 0 27 9196 25 95865 20707 3.6 31 9 2 7 31% 10111 65573 13211 49%
c e 23.93 29 205 0 27 9196 25 95865 20707 3.6 31 9 2 7 31% 7150 72685 11610 43%
c 2 23.93 29 205 0 27 9196 25 95865 20707 3.6 31 9 2 7 31% 7148 72685 11610 43%
c s 23.95 29 205 0 27 9196 25 95865 20707 3.6 31 9 2 7 31% 7165 72320 11610 43%
c e 23.96 29 205 0 27 9196 25 95865 20707 3.6 31 9 2 7 31% 7153 72337 11597 43%
c ^ 23.96 29 205 0 27 9196 25 95865 20707 3.6 31 9 2 7 31% 7153 72337 11597 43%
c - 24.11 29 204 0 28 9322 24 96937 13009 3.6 31 9 1 7 31% 7164 72332 11597 43%
c i 24.29 29 202 0 28 9461 24 98289 14296 3.6 31 9 1 7 31% 7169 72332 11596 43%
c i 24.36 29 200 0 28 9519 24 99260 15082 3.6 31 9 1 7 30% 7200 72332 11595 43%
c i 24.54 29 197 0 28 9652 24 101380 17032 3.5 30 9 1 7 30% 7224 72331 11593 43%
c i 24.54 29 197 0 28 9654 24 101402 17040 3.5 30 9 1 7 30% 7227 72331 11592 43%
c i 24.57 29 197 0 28 9680 24 101562 17177 3.5 30 9 1 7 30% 7230 72331 11591 43%
c i 24.62 29 196 0 28 9721 24 101868 17460 3.5 30 9 1 7 30% 7233 72331 11590 43%
c - 24.64 29 196 0 29 9724 24 102228 14466 3.5 30 9 1 7 30% 7206 72331 11590 43%
c i 24.65 29 195 0 29 9724 23 103064 15125 3.5 30 9 1 7 31% 7222 72331 11587 43%
c
c  seconds   switched     rate          size/glue tier1    binary         remaining
c         MB   reductions   conflicts         size  tier2     irredundant
c           level   restarts       redundant    glue   trail         variables
c
c i 24.66 29 195 0 29 9724 23 103091 15133 3.5 30 9 1 7 31% 7226 72330 11585 43%
c i 24.67 29 195 0 29 9736 23 103431 15405 3.5 30 9 1 7 31% 7230 72330 11584 43%
c i 24.69 29 193 0 29 9744 23 104245 16098 3.5 30 9 1 7 31% 7245 72330 11583 43%
c i 24.70 29 193 0 29 9745 23 104314 16154 3.5 30 9 1 7 31% 7250 72330 11582 43%
c i 24.70 29 193 0 29 9745 23 104351 16181 3.5 30 9 1 7 31% 7253 72330 11581 43%
c i 24.70 29 193 0 29 9745 23 104532 16325 3.5 30 9 1 7 31% 7261 72330 11580 43%
c d 24.71 29 193 0 29 9745 23 104657 15597 3.5 30 9 1 7 31% 7260 72130 11556 43%
c d 24.71 29 193 0 29 9745 23 104657 15548 3.5 30 9 1 7 31% 7222 72116 11537 42%
c u 24.75 29 193 0 29 9745 23 104657 13796 3.5 30 9 1 7 31% 7253 72116 11534 42%
c v 24.81 29 193 0 29 9745 23 104657 10948 3.5 30 9 1 7 31% 7274 72116 11533 42%
c w 24.83 29 193 0 29 9745 23 104657 10837 3.5 30 9 1 7 31% 7274 72116 11533 42%
c = 25.23 29 193 0 29 9745 23 104657 10837 3.5 30 9 1 7 31% 7436 71916 11442 42%
c d 25.24 29 193 0 29 9745 23 104657 10638 3.5 30 9 1 7 31% 7267 71909 11442 42%
c t 25.24 29 193 0 29 9745 23 104657 10638 3.5 30 9 1 7 31% 7077 71909 11442 42%
c f 25.29 29 193 0 29 9745 23 104657 10638 3.5 30 9 1 7 31% 7084 71836 11449 42%
c u 25.32 29 193 0 29 9745 23 104657 10241 3.5 30 9 1 7 31% 7089 71836 11449 42%
c v 25.35 29 193 0 29 9745 23 104657 9572 3.5 30 9 1 7 31% 7091 71836 11449 42%
c w 25.37 29 193 0 29 9745 23 104657 9418 3.5 30 9 1 7 31% 7091 71836 11449 42%
c x 25.51 29 193 0 29 9745 23 104657 9394 3.5 30 9 1 7 31% 7109 69801 11449 42%
c = 25.87 29 193 0 29 9745 23 104657 9394 3.5 30 9 1 7 31% 7113 69797 11446 42%
c
c  seconds   switched     rate         size/glue tier1    binary         remaining
c         MB   reductions   conflicts        size  tier2     irredundant
c           level   restarts      redundant    glue   trail         variables
c
c d 25.87 29 193 0 29 9745 23 104657 9376 3.5 30 9 1 7 31% 7108 69797 11446 42%
c t 25.88 29 193 0 29 9745 23 104657 9376 3.5 30 9 1 7 31% 7091 69797 11446 42%
c i 25.89 29 193 0 29 9745 23 104657 9376 3.5 30 9 1 7 31% 7091 69797 11446 42%
c i 25.91 29 192 0 29 9776 23 104995 9666 3.5 30 9 1 7 31% 7099 69797 11445 42%
c i 25.92 29 192 0 29 9795 23 105100 9756 3.5 30 9 1 7 31% 7101 69796 11444 42%
c i 25.94 29 191 0 29 9821 23 105510 10093 3.5 30 9 1 7 31% 7116 69796 11438 42%
c i 25.94 29 191 0 29 9821 23 105513 10093 3.5 30 9 1 7 31% 7117 69796 11435 42%
c i 25.94 29 191 0 29 9821 23 105514 10093 3.5 30 9 1 7 31% 7117 69796 11419 42%
c } 25.94 29 191 0 29 9821 23 105517 10094 3.5 30 9 1 7 31% 7117 69796 11409 42%
c 0 25.94 29 191 0 29 9821 23 105517 10094 3.5 30 9 1 7 31% 7117 69796 11409 42%
c
c ---- [ result ] ------------------------------------------------------------
c
s UNSATISFIABLE
c
c ---- [ profiling ] ---------------------------------------------------------
c
c          17.77   68.49 %  search
c          17.77   68.49 %  focused
c           7.84   30.23 %  simplify
c           7.39   28.50 %  probe
c           3.20   12.33 %  sweep
c           2.62   10.10 %  vivify
c           0.59    2.27 %  eliminate
c           0.58    2.25 %  factor
c           0.42    1.62 %  substitute
c           0.40    1.52 %  congruence
c           0.28    1.06 %  preprocess
c           0.14    0.52 %  reduce
c           0.13    0.51 %  fastel
c           0.12    0.45 %  transitive
c           0.11    0.42 %  subsume
c           0.06    0.21 %  backbone
c           0.04    0.14 %  lucky
c           0.02    0.08 %  parse
c =============================================
c          25.94  100.00 %  total
c
c ---- [ statistics ] --------------------------------------------------------
c
c chronological:                         4329                4 %  conflicts
c conflicts:                           105517             4067.54 per second
c congruent:                              157                1 %  variables
c decisions:                          2480858               23.51 per conflict
c eliminated:                           14248               52 %  variables
c factored:                              5601               21 %  variables
c fast_eliminated:                       8841               62 %  eliminated
c fast_strengthened:                       98                8 %  per strengthened
c fast_subsumed:                           53                0 %  per subsumed
c iterations:                              32                0 %  variables
c propagations:                     116017403          4472311    per second
c reductions:                              29             3639    interval
c reordered:                                4            26379    interval
c restarts:                              9821               11    interval
c strengthened:                          1187                0 %  checks
c substituted:                           6998               26 %  variables
c subsumed:                             26390                1 %  checks
c switched:                                 0                0    interval
c vivified:                             54446               15 %  checks
c
c ---- [ glue usage ] --------------------------------------------------------
c
c focused glue 2   used 47983 clauses 21.74% accumulated 71.73% tier1
c focused glue 3   used 16814 clauses  7.62% accumulated 79.35%
c focused glue 4-5 used 17444 clauses  7.90% accumulated 87.25%
c focused glue 6   used  5248 clauses  2.38% accumulated 89.63%
c focused glue 7   used  4063 clauses  1.84% accumulated 91.47% tier2
c
c ---- [ resources ] ---------------------------------------------------------
c
c maximum-resident-set-size:         30449664 bytes         29 MB
c process-time:                            26s              25.94 seconds
c
c ---- [ shutting down ] -----------------------------------------------------
c
c exit 20
